Test: battleship-14-27-sat.cnf
Options: -no-inverting-opt -sym-usage-var-bump
WARNING: for repeatability, setting FPU to use double precision
============================[ Problem Statistics ]=============================
|                                                                             |
|  Number of symmetries:           19                                         |
|  Number of invertingSyms:         0                                         |
|  Number of variables:           378                                         |
|  Number of clauses:            2653                                         |
|  Parse time:                   0.00 s                                       |
|                                                                             |
============================[ Search Statistics ]==============================
| Conflicts |          ORIGINAL         |          LEARNT          | Progress |
|           |    Vars  Clauses Literals |    Limit  Clauses Lit/Cl |          |
===============================================================================
|       100 |     378     2653    10206 |      972      100    133 |  0.001 % |
|       250 |     378     2653    10206 |     1070      277    124 |  0.001 % |
|       475 |     378     2653    10206 |     1177      532    126 |  0.001 % |
|       812 |     378     2653    10206 |     1294      945    127 |  0.001 % |
|      1318 |     378     2653    10206 |     1424      861    125 |  0.001 % |
|      2077 |     378     2653    10206 |     1566     1045    122 |  0.001 % |
|      3216 |     378     2653    10206 |     1723     1427    151 |  0.001 % |
|      4924 |     378     2653    10206 |     1895     1583    121 |  0.001 % |
|      7486 |     378     2653    10206 |     2085     1739    146 |  0.001 % |
|     11330 |     378     2653    10206 |     2293     1150    125 |  0.001 % |
|     17096 |     378     2653    10206 |     2523     1903    137 |  0.001 % |
===============================================================================
restarts              : 63
conflicts             : 17141          (25506 /sec)
symconflicts          : 889            (1323 /sec)
decisions             : 48072          (0.00 % random) (71531 /sec)
propagations          : 417832         (621735 /sec)
sympropagations       : 4048           (6023 /sec)
conflict literals     : 2537186        (2.68 % deleted)
literals     : 2537186        (2.68 % deleted)

HEURISTIC USAGES
random                : 0           
activity w/ lookahead : 0           
activity no lookahead : 0           
original sp           : 48071       
sym count             : 0           

Memory used           : 6.00 MB
CPU time              : 0.672042 s

SATISFIABLE
